33662
0 0 0 0 1 0 0 1 1 0 0 1 0 0 0 0 0 1 0 1 1 1 0 1 1 0 0 1 0 0 
7 19 21 27 21 11 21 27 27 17 4 17 20 23 19 7 23 20 27 27 27 24 23 24 23 27 27 19 4 21 19 19 4 21 27 19 20 8 24 21 7 8 19 4 8 19 8 21 19 20 24 24 24 21 8 19 11 8 27 7 4 17 7 8 20 11 23 17 19 11 7 11 19 8 23 23 20 23 8 24 23 17 8 7 4 20 19 24 27 7 17 19 7 7 24 8 27 19 17 17 17 21 11 7 4 24 4 24 27 8 19 4 27 11 11 8 17 7 17 8 20 11 17 19 4 21 21 11 4 17 11 24 11 20 23 8 8 8 17 20 11 27 11 11 7 23 24 21 27 7 24 17 23 17 8 11 21 21 8 8 23 27 20 24 23 27 23 4 23 21 23 20 19 20 4 21 24 20 4 20 23 21 24 19 11 8 17 23 17 21 21 21 19 4 7 11 7 21 20 19 
